Maximize

y_0_1 + y_0_2 + y_1_2 + y_1_5 + y_2_3 + y_3_5 + y_4_0 + y_4_2 + x_0 + x_1 + x_2 + x_3 + x_4 + x_5


Subject To

a0: y_4_0 - y_0_1 - y_0_2 = 0
a1: y_0_1 - y_1_2 - y_1_5 = 0
a2: y_0_2 + y_1_2 + y_4_2 - y_2_3 = 0
a3: y_2_3 - y_3_5 = 0
b0: y_4_0 - x_0 = 0
b1: y_0_1 - x_1 = 0
b2: y_0_2 + y_1_2 + y_4_2 - x_2 = 0
b3: y_2_3 - x_3 = 0
b4: y_1_5 + y_3_5 - x_5 = 0
c0: y_4_0 + y_4_2 - x_4 = 0



Bounds


y_0_1 <= 12.0
y_0_2 <= 10.0
y_1_2 <= 9.0
y_1_5 <= 20.0
y_2_3 <= 14.0
y_3_5 <= 4.0
y_4_0 <= 16.0
y_4_2 <= 13.0
y_3_5 >= 4.0



 


End
